%chk=ozone_triplet_PW91.chk
%mem=2000MB
%nproc=1
#P opt=gdiis PW91PW91/6-311++G** geom=connectivity guess=mix
# scf=(fermi,conver=7,maxcycle=400) density=current output=wfx pop=NOAB

Title Card Required

0 3
 O
 O                  1              B1
 O                  1              B2    2              A1

   B1             1.34000000
   B2             1.34000000
   A1           115.00000000

 1 2 1.0 3 1.0
 2
 3

ozone_triplet_PW91.wfx

