%chk=ozone_triplet_CCSD.chk
%mem=8000MB
%nproc=4
# opt CCSD(full,SaveAmplitudes)/aug-cc-pVTZ geom=connectivity scf=(fermi,maxcycle=400)
# density=current output=wfx pop=NOAB

Title Card Required

0 3
 O
 O                  1              B1
 O                  1              B2    2              A1

   B1             1.34000000
   B2             1.34000000
   A1           98.00000000

 1 2 1.0 3 1.0
 2
 3

ozone_triplet_CCSD.wfx

