%chk=ozone+1_PW91.chk
%mem=2000MB
%nproc=1
#P opt PW91PW91/6-311++G** geom=connectivity guess=mix
# scf=(fermi,maxcycle=400) density=current output=wfx pop=NOAB

Title Card Required

1 2
 O
 O                  1              B1
 O                  1              B2    2              A1

   B1             1.21000000
   B2             1.21000000
   A1           134.00000000

 1 2 1.0 3 1.0
 2
 3

ozone+1_PW91.wfx

